NAME: random20
TYPE: TSP
COMMENT: random graph with 20 nodes
DIMENSION: 20
EDGE_WEIGHT_TYPE: EUC_2D
NODE_COORD_SECTION
1 58.526409 54.972361
2 91.719366 28.583902
3 75.720023 75.372909
4 38.044585 56.782164
5 7.585429 5.395012
6 53.079755 77.916723
7 93.401068 12.990621
8 56.882366 46.939064
9 1.190207 33.712264
10 16.218231 79.428454
11 31.121504 52.853314
12 16.564873 60.198194
13 26.297128 65.407910
14 68.921450 74.815159
15 45.054160 8.382138
16 22.897697 91.333736
17 15.237802 82.581698
18 53.834244 99.613472
19 7.817553 44.267827
20 10.665277 96.189808
EOF
